language Essence 1.3

letting blksize_delta be
        function(1 --> 10, 2 --> 10, 3 --> 10, 4 --> 10, 5 --> 10, 6 --> 10, 7 --> 10, 8 --> 10, 9 --> 10, 10 --> 10,
                 11 --> 10, 12 --> 10, 13 --> 10, 14 --> 10, 15 --> 10, 16 --> 10, 17 --> 10, 18 --> 10, 19 --> 10,
                 20 --> 10, 21 --> 10, 22 --> 10, 23 --> 10, 24 --> 10, 25 --> 10, 26 --> 10, 27 --> 10, 28 --> 10,
                 29 --> 10)
letting maxcars be
        function(1 --> 10, 2 --> 10, 3 --> 10, 4 --> 10, 5 --> 10, 6 --> 10, 7 --> 10, 8 --> 10, 9 --> 10, 10 --> 10,
                 11 --> 10, 12 --> 10, 13 --> 10, 14 --> 10, 15 --> 10, 16 --> 10, 17 --> 10, 18 --> 10, 19 --> 10,
                 20 --> 10, 21 --> 10, 22 --> 10, 23 --> 10, 24 --> 10, 25 --> 10, 26 --> 10, 27 --> 10, 28 --> 10,
                 29 --> 10)
letting n_cars be 212
letting n_classes be 34
letting n_options be 29
letting quantity be
        function(1 --> 6, 2 --> 12, 3 --> 6, 4 --> 8, 5 --> 6, 6 --> 6, 7 --> 6, 8 --> 6, 9 --> 6, 10 --> 6, 11 --> 6,
                 12 --> 6, 13 --> 6, 14 --> 6, 15 --> 6, 16 --> 6, 17 --> 6, 18 --> 6, 19 --> 6, 20 --> 6, 21 --> 6,
                 22 --> 6, 23 --> 6, 24 --> 6, 25 --> 6, 26 --> 6, 27 --> 6, 28 --> 6, 29 --> 6, 30 --> 6, 31 --> 6,
                 32 --> 6, 33 --> 6, 34 --> 6)
letting usage be
        relation((1, 2), (1, 21), (2, 2), (2, 20), (3, 10), (3, 16), (4, 9), (5, 1), (5, 3), (5, 9), (5, 12), (5, 20),
                 (5, 23), (6, 1), (6, 10), (6, 17), (6, 23), (6, 26), (7, 4), (7, 23), (7, 26), (7, 28), (8, 4), (8, 6),
                 (8, 13), (8, 14), (8, 22), (8, 26), (8, 27), (8, 29), (9, 29), (10, 4), (10, 14), (10, 20), (11, 3),
                 (11, 9), (11, 13), (11, 16), (12, 4), (12, 22), (13, 18), (14, 4), (14, 16), (15, 9), (15, 18),
                 (15, 26), (16, 25), (17, 1), (17, 16), (17, 24), (18, 1), (18, 6), (18, 14), (19, 6), (19, 19),
                 (20, 16), (20, 18), (21, 26), (22, 2), (22, 5), (22, 13), (22, 14), (22, 20), (23, 14), (23, 23),
                 (23, 24), (23, 26), (24, 13), (24, 14), (24, 24), (25, 5), (25, 6), (25, 12), (25, 22), (26, 10),
                 (26, 18), (26, 19), (27, 7), (27, 14), (27, 18), (27, 20), (28, 29), (29, 12), (30, 1), (30, 3),
                 (31, 4), (31, 20), (31, 27), (32, 7), (32, 15), (32, 22), (32, 23), (32, 28), (33, 1), (33, 2),
                 (33, 5), (33, 7), (33, 13), (33, 20), (34, 1), (34, 4), (34, 7), (34, 8), (34, 11), (34, 16))
$ Visualisation for usage
$  1  2
$  1 21
$  2  2
$  2 20
$  3 10
$  3 16
$  4  9
$  5  1
$  5  3
$  5  9
$  5 12
$  5 20
$  5 23
$  6  1
$  6 10
$  6 17
$  6 23
$  6 26
$  7  4
$  7 23
$  7 26
$  7 28
$  8  4
$  8  6
$  8 13
$  8 14
$  8 22
$  8 26
$  8 27
$  8 29
$  9 29
$ 10  4
$ 10 14
$ 10 20
$ 11  3
$ 11  9
$ 11 13
$ 11 16
$ 12  4
$ 12 22
$ 13 18
$ 14  4
$ 14 16
$ 15  9
$ 15 18
$ 15 26
$ 16 25
$ 17  1
$ 17 16
$ 17 24
$ 18  1
$ 18  6
$ 18 14
$ 19  6
$ 19 19
$ 20 16
$ 20 18
$ 21 26
$ 22  2
$ 22  5
$ 22 13
$ 22 14
$ 22 20
$ 23 14
$ 23 23
$ 23 24
$ 23 26
$ 24 13
$ 24 14
$ 24 24
$ 25  5
$ 25  6
$ 25 12
$ 25 22
$ 26 10
$ 26 18
$ 26 19
$ 27  7
$ 27 14
$ 27 18
$ 27 20
$ 28 29
$ 29 12
$ 30  1
$ 30  3
$ 31  4
$ 31 20
$ 31 27
$ 32  7
$ 32 15
$ 32 22
$ 32 23
$ 32 28
$ 33  1
$ 33  2
$ 33  5
$ 33  7
$ 33 13
$ 33 20
$ 34  1
$ 34  4
$ 34  7
$ 34  8
$ 34 11
$ 34 16

